NAME: kroB100
TYPE: TSP
COMMENT: 100-city problem B (Krolak/Felts/Nelson)
DIMENSION: 100
EDGE_WEIGHT_TYPE : EUC_2D
NODE_COORD_SECTION
1 3140 1401
2 556 1056
3 3675 1522
4 1182 1853
5 3595 111
6 962 1895
7 2030 1186
8 3507 1851
9 2642 1269
10 3438 901


